4 10 6 18 14 15 5 11 8 0 16 9 13 12 17 2 7 3 1 19  
4 10 6 18 14 15 5 11 8 0 16 9 13 12 17 2 7 1 3 19  
4 10 6 18 14 15 5 0 8 11 16 9 13 12 17 2 7 3 1 19  
4 10 6 18 15 14 11 17 8 12 0 19 16 5 9 13 2 1 7 3  
4 10 6 18 15 14 11 17 8 12 0 13 16 5 9 19 2 1 7 3  
4 10 6 18 15 14 11 17 8 12 0 13 16 5 9 19 2 1 7 3  
4 10 6 18 15 11 14 17 8 12 0 2 16 5 9 13 1 7 3 19  
4 10 6 18 14 15 5 11 8 0 16 9 13 12 17 2 7 1 3 19  
4 10 6 18 15 14 11 17 8 12 0 2 16 5 9 13 7 1 3 19  
4 10 6 18 15 14 11 17 8 12 0 19 16 5 9 13 2 1 7 3  
4 10 6 18 14 15 5 8 11 7 9 13 2 12 17 1 0 19 16 3  
4 10 6 18 15 14 11 17 8 12 0 13 16 5 9 2 19 1 7 3  
4 10 6 18 15 14 11 17 8 12 0 13 16 5 9 2 19 1 7 3  
4 10 6 18 15 14 11 17 8 12 0 13 16 5 9 19 1 7 2 3  
4 10 6 18 15 0 8 11 14 12 5 9 13 2 7 17 1 19 16 3  
4 10 6 18 14 15 5 0 8 11 16 9 13 12 17 2 7 3 1 19  
10 6 4 15 18 14 11 17 8 12 0 19 16 5 9 13 7 2 1 3  
6 10 4 15 18 14 11 17 8 12 0 13 16 5 9 19 1 7 2 3  
10 6 15 4 18 14 11 17 8 12 0 19 16 5 9 13 7 2 3 1  
4 10 6 18 15 14 11 17 8 12 0 13 16 5 9 1 7 2 3 19  
4 10 6 18 15 14 11 17 8 12 0 13 16 5 9 2 19 1 7 3  
4 10 6 18 15 14 11 17 8 12 0 19 16 5 9 13 2 1 7 3  
10 6 4 15 18 11 14 17 8 12 0 13 16 5 9 19 1 7 2 3  
4 10 6 18 14 15 11 0 8 12 5 9 19 2 17 1 7 13 16 3  
4 10 6 18 15 14 11 17 8 12 5 7 9 19 2 1 0 13 16 3  
4 10 6 18 15 0 8 11 14 12 17 7 16 5 9 13 2 1 3 19  
4 10 6 18 15 14 11 17 8 12 0 13 16 5 9 2 19 1 7 3  
4 10 6 18 15 14 11 17 8 12 0 13 16 5 9 1 7 2 3 19  
6 10 4 15 18 14 11 17 8 12 0 13 16 5 9 2 19 1 7 3  
4 10 6 18 14 15 5 11 8 0 16 9 13 12 17 2 7 3 1 19  
4 10 6 18 15 17 8 14 11 12 0 2 16 5 9 13 7 3 1 19  
10 6 15 4 18 14 12 17 8 11 5 7 9 19 2 1 0 13 16 3  
4 10 6 18 14 15 5 8 11 7 9 13 2 12 17 1 0 19 16 3  
6 10 4 15 18 14 11 17 8 12 0 13 16 5 9 2 19 1 7 3  
4 10 6 18 15 17 8 14 11 12 0 2 16 5 9 13 7 3 19 1  
4 10 6 18 15 14 11 17 8 12 0 13 16 5 9 19 2 1 7 3  
4 10 6 18 15 14 11 17 8 12 0 13 16 5 9 2 19 1 7 3  
6 10 4 18 15 14 11 7 8 17 12 5 9 19 2 1 0 13 16 3  
10 6 15 4 18 14 11 17 8 12 0 19 16 5 9 13 3 1 7 2  
4 10 6 18 15 14 11 17 8 12 0 13 16 5 9 19 2 1 7 3  
10 6 15 4 18 11 14 17 8 12 0 19 16 5 9 13 2 1 7 3  
10 6 15 4 18 14 11 17 8 12 0 19 16 5 9 2 13 7 3 1  
10 6 15 4 18 14 11 0 8 12 17 1 5 9 13 2 7 19 16 3  
10 6 15 4 14 18 11 17 8 12 0 13 16 5 9 1 7 2 3 19  
10 6 15 4 18 14 12 17 8 11 5 7 9 13 2 1 0 19 16 3  
10 6 15 4 18 14 12 17 8 11 0 1 5 9 13 2 7 19 16 3  
